NAME cs
ROWS
 N  OBJ
 G  R0      
 G  R1      
 G  R2      
 G  R3      
 G  R4      
 G  R5      
 G  R6      
 G  R7      
 G  R8      
 G  R9      
 E  R10     
COLUMNS
    x[0]      OBJ       1
    x[0]      R0        1
    x[1]      OBJ       2
    x[1]      R1        1
    x[2]      OBJ       3
    x[2]      R2        1
    x[3]      OBJ       4
    x[3]      R3        1
    x[4]      OBJ       7
    x[4]      R4        1
    x[5]      OBJ       8
    x[5]      R5        1
    x[6]      OBJ       10
    x[6]      R6        1
    x[7]      OBJ       13
    x[7]      R7        1
    x[8]      OBJ       14
    x[8]      R8        1
    x[9]      OBJ       16
    x[9]      R9        1
    L[0]      R10       1
RHS
    RHS1      R0        10
    RHS1      R1        20
    RHS1      R2        30
    RHS1      R3        10
    RHS1      R4        20
    RHS1      R5        30
    RHS1      R6        10
    RHS1      R7        20
    RHS1      R8        10
    RHS1      R9        20
    RHS1      R10       20
BOUNDS
ENDATA
